1-73-2-68-4-45-15-57-27-52-34-46-8-35-53-14-59-11-66-65-38-10-72-39-9-32-44-3-16-63-1
1-33-6-51-17-40-12-26-7-19-54-13-29-48-47-5-37-20-70-60-71-36-69-21-61-22-1
1-43-42-64-41-56-23-49-24-18-50-25-55-31-58-67-76-75-30-74-28-62-1